12 32 6 10
19 7 10 10 17 18 13 15 10 20 11 13 15 18 10 12 13 18 6 19 5 1 12 20 7 20 1 9 11 1 6 8 
2.86 7.77 6.86 5.96 5.5 7 7.95 6.96 7.73 2.45 5.21 2.81 0.12 2.08 0.56 1.95 2.8 5.81 2.1 4.96 1.62 5.25 3.65 6.37 6.06 7.79 7.19 2.99 1.03 2.76 4.56 4.33 
0.78 5.1 2.48 6.37 2.07 3.74 7.18 7.17 1.89 7.65 2.55 5.61 6.21 7.93 0.98 3.32 4.14 7.61 2.79 7.34 6.74 4.92 7.58 6.68 5.98 0.46 4.61 0.14 4.15 2.71 5.7 4.03 
5.54 6.15 2.77 4.46 6.04 1.39 3.99 1.4 7.96 3.24 1.74 4.89 5.82 3.68 7.24 4.46 6.94 3.62 5.15 5.61 0.47 6.71 3.36 7.04 2.82 0.82 7.58 2.46 0.94 7.43 4.73 1.65 
1.79 5.29 5.44 2.59 2.41 0.35 4.69 4.63 4.06 0.27 2.71 2.3 6.8 3.93 4.49 1.67 6.07 3 4.43 3.2 4.14 3.11 2.1 2.67 2.36 5.26 5.03 5.8 2.72 1.45 0.43 4.94 
0.04 3.13 3.8 3.3 5.28 5.33 0.74 6.76 6.44 0.11 5.68 1.64 6.62 2.67 1.13 1.46 3.53 5.1 1.37 5.35 7.72 1.31 0.13 5.46 1.37 0.97 5.47 5.74 5.56 4.9 0.03 1.77 
1.12 0.77 0.99 3.54 1.32 2.13 2.51 5.21 5.44 4.01 4.54 3.01 0.65 0.03 1.95 4.84 0.85 1.69 0.85 6.86 7.46 6.18 3.41 3.26 2.93 4.23 6.83 1.82 1.11 3.3 2.85 5.52 
4 4 4 4 4 4 4 4 4 4 4 4 4 4 4 4 4 4 4 4 4 4 4 4 4 4 4 4 4 4 4 4 
7.87 3.75 7.61 1.24 2.36 0.36 0.54 1.22 2.26 7.1 6.84 7.7 6.89 2.9 1.85 7.28 7.72 3.07 1.28 7.04 4.66 1.35 6.09 5.04 5.92 6 1.61 2.48 5.73 5.46 6.77 7.37 
0.89 6.34 5.79 2.84 4.45 2.79 0.2 3.9 7.69 1.02 4.02 2.41 0.31 6.32 3.29 1.49 4.07 0.31 7.58 5.81 3.83 4.33 7.23 1.95 1.06 3.56 4.92 5.84 6.63 5.12 4.57 7.76 
5.18 3.64 0.66 7.14 1.7 4.24 7.23 7.24 0.46 1.9 7.93 1.99 6.7 4.55 7.43 7.52 0.3 3.06 1.15 2.57 1.95 0.48 6.56 2.72 7.1 5.43 5.89 4.08 5.56 4.74 3.03 4.84 
6.41 4.8 1.3 0.84 4.5 6.52 5.21 4.41 2.21 0.98 0.95 5.55 3.22 5.07 3.21 6.85 7.24 0.95 2.07 6.03 5.38 3.37 6.92 4.25 0.19 5.67 2.94 6.8 6.31 3.44 2.58 0.88 
0.61 3.46 3.7 5.39 5.61 2.63 1.05 7.87 1.51 6.34 6.21 6.97 6.84 5.17 6.61 2.11 4.13 6.05 1.74 0.53 4.75 0.76 2.85 4.54 3.95 5.88 3.51 2.63 6.63 6.28 4.57 3.44 
1 1 1 1 1 1 1 1 1 1 1 1 1 1 1 1 1 1 1 1 1 1 1 1 1 1 1 1 1 1 1 1 
1 1 1 1 1 1 1 1 1 1 1 1 1 1 1 1 1 1 1 1 1 1 1 1 1 1 1 1 1 1 1 1 
1 1 1 1 1 1 1 1 1 1 1 1 1 1 1 1 1 1 1 1 1 1 1 1 1 1 1 1 1 1 1 1 
1 1 1 1 1 1 1 1 1 1 1 1 1 1 1 1 1 1 1 1 1 1 1 1 1 1 1 1 1 1 1 1 
1 1 1 1 1 1 1 1 1 1 1 1 1 1 1 1 1 1 1 1 1 1 1 1 1 1 1 1 1 1 1 1 
1 1 1 1 1 1 1 1 1 1 1 1 1 1 1 1 1 1 1 1 1 1 1 1 1 1 1 1 1 1 1 1 
1 1 1 1 1 1 1 1 1 1 1 1 1 1 1 1 1 1 1 1 1 1 1 1 1 1 1 1 1 1 1 1 
1 1 1 1 1 1 1 1 1 1 1 1 1 1 1 1 1 1 1 1 1 1 1 1 1 1 1 1 1 1 1 1 
1 1 1 1 1 1 1 1 1 1 1 1 1 1 1 1 1 1 1 1 1 1 1 1 1 1 1 1 1 1 1 1 
1 1 1 1 1 1 1 1 1 1 1 1 1 1 1 1 1 1 1 1 1 1 1 1 1 1 1 1 1 1 1 1 
1 1 1 1 1 1 1 1 1 1 1 1 1 1 1 1 1 1 1 1 1 1 1 1 1 1 1 1 1 1 1 1 
1 1 1 1 1 1 1 1 1 1 1 1 1 1 1 1 1 1 1 1 1 1 1 1 1 1 1 1 1 1 1 1 
0.01 0.01 0.01 0.01 0.01 0.01 0.01 0.01 0.01 0.01 0.01 0.01 0.01 0.01 0.01 0.01 0.01 0.01 0.01 0.01 0.01 0.01 0.01 0.01 0.01 0.01 0.01 0.01 0.01 0.01 0.01 0.01 
0.02 0.02 0.02 0.02 0.02 0.02 0.02 0.02 0.02 0.02 0.02 0.02 0.02 0.02 0.02 0.02 0.02 0.02 0.02 0.02 0.02 0.02 0.02 0.02 0.02 0.02 0.02 0.02 0.02 0.02 0.02 0.02 
0.03 0.03 0.03 0.03 0.03 0.03 0.03 0.03 0.03 0.03 0.03 0.03 0.03 0.03 0.03 0.03 0.03 0.03 0.03 0.03 0.03 0.03 0.03 0.03 0.03 0.03 0.03 0.03 0.03 0.03 0.03 0.03 
0.04 0.04 0.04 0.04 0.04 0.04 0.04 0.04 0.04 0.04 0.04 0.04 0.04 0.04 0.04 0.04 0.04 0.04 0.04 0.04 0.04 0.04 0.04 0.04 0.04 0.04 0.04 0.04 0.04 0.04 0.04 0.04 
0.05 0.05 0.05 0.05 0.05 0.05 0.05 0.05 0.05 0.05 0.05 0.05 0.05 0.05 0.05 0.05 0.05 0.05 0.05 0.05 0.05 0.05 0.05 0.05 0.05 0.05 0.05 0.05 0.05 0.05 0.05 0.05 
0.06 0.06 0.06 0.06 0.06 0.06 0.06 0.06 0.06 0.06 0.06 0.06 0.06 0.06 0.06 0.06 0.06 0.06 0.06 0.06 0.06 0.06 0.06 0.06 0.06 0.06 0.06 0.06 0.06 0.06 0.06 0.06 
0.07 0.07 0.07 0.07 0.07 0.07 0.07 0.07 0.07 0.07 0.07 0.07 0.07 0.07 0.07 0.07 0.07 0.07 0.07 0.07 0.07 0.07 0.07 0.07 0.07 0.07 0.07 0.07 0.07 0.07 0.07 0.07 
0.2 0.2 0.2 0.2 0.2 0.2 0.2 0.2 0.2 0.2 0.2 0.2 0.2 0.2 0.2 0.2 0.2 0.2 0.2 0.2 0.2 0.2 0.2 0.2 0.2 0.2 0.2 0.2 0.2 0.2 0.2 0.2 
0.4 0.4 0.4 0.4 0.4 0.4 0.4 0.4 0.4 0.4 0.4 0.4 0.4 0.4 0.4 0.4 0.4 0.4 0.4 0.4 0.4 0.4 0.4 0.4 0.4 0.4 0.4 0.4 0.4 0.4 0.4 0.4 
0.6 0.6 0.6 0.6 0.6 0.6 0.6 0.6 0.6 0.6 0.6 0.6 0.6 0.6 0.6 0.6 0.6 0.6 0.6 0.6 0.6 0.6 0.6 0.6 0.6 0.6 0.6 0.6 0.6 0.6 0.6 0.6 
0.8 0.8 0.8 0.8 0.8 0.8 0.8 0.8 0.8 0.8 0.8 0.8 0.8 0.8 0.8 0.8 0.8 0.8 0.8 0.8 0.8 0.8 0.8 0.8 0.8 0.8 0.8 0.8 0.8 0.8 0.8 0.8 
1 1 1 1 1 1 1 1 1 1 1 1 1 1 1 1 1 1 1 1 1 1 1 1 1 1 1 1 1 1 1 1 
